N = 6;
Capacity = 14;
Demand = [7, 7, 7, 9, 4, 5];
Distance = [|
  0, 22, 12, 50, 48, 37, 48
| 22, 0, 34, 72, 70, 58, 27
| 12, 34, 0, 38, 36, 25, 60
| 50, 72, 38, 0, 3, 17, 98
| 48, 70, 36, 3, 0, 14, 96
| 37, 58, 25, 17, 14, 0, 83
| 48, 27, 60, 98, 96, 83, 0
|];
